c Result of efficient AIG-to-CNF conversion using package CNF
p cnf 191 639
2 160 -3 0
2 -160 3 0
-2 -160 -3 0
-2 160 3 0
3 -4 -54 0
-3 4 0
-3 54 0
4 -5 -30 0
-4 5 0
-4 30 0
5 6 -17 0
-5 -6 0
-5 17 0
-6 -7 -16 0
-6 7 16 0
6 7 -16 0
6 -7 16 0
7 190 -8 0
-7 -190 0
-7 8 0
-8 -9 -14 0
-8 9 14 0
8 9 -14 0
8 -9 14 0
-9 10 12 0
-9 -10 -12 0
9 -10 12 0
9 10 -12 0
10 163 -11 0
10 -163 11 0
-10 -163 -11 0
-10 163 11 0
11 166 -169 0
11 -166 169 0
-11 -166 -169 0
-11 166 169 0
-12 -175 -13 0
-12 175 13 0
12 175 -13 0
12 -175 13 0
13 168 -173 0
13 -168 173 0
-13 -168 -173 0
-13 168 173 0
14 172 -15 0
14 -172 15 0
-14 -172 -15 0
-14 172 15 0
15 -179 -182 192 0
-15 179 0
-15 182 0
-15 -192 0
16 -178 -190 0
16 -178 182 0
-16 178 0
-16 -182 190 0
-17 -185 -18 0
-17 185 18 0
17 185 -18 0
17 -185 18 0
18 190 -19 0
-18 -190 0
-18 19 0
-19 20 22 0
-19 -20 -22 0
19 -20 22 0
19 20 -22 0
20 160 -21 0
20 -160 21 0
-20 -160 -21 0
-20 160 21 0
21 -176 183 192 0
-21 176 0
-21 -192 0
-21 -183 0
-22 -23 -25 0
-22 23 25 0
22 23 -25 0
22 -23 25 0
23 164 -24 0
23 -164 24 0
-23 -164 -24 0
-23 164 24 0
24 165 -166 0
24 -165 166 0
-24 -165 -166 0
-24 165 166 0
25 -26 28 0
25 26 -28 0
-25 26 28 0
-25 -26 -28 0
26 170 -27 0
26 -170 27 0
-26 -170 -27 0
-26 170 27 0
27 171 -172 0
27 -171 172 0
-27 -171 -172 0
-27 171 172 0
-28 -175 -29 0
-28 175 29 0
28 175 -29 0
28 -175 29 0
29 169 -174 0
29 -169 174 0
-29 -169 -174 0
-29 169 174 0
30 -31 -45 0
-30 31 0
-30 45 0
31 32 -33 0
-31 -32 0
-31 33 0
32 -177 -183 0
32 -177 -190 0
-32 177 0
-32 183 190 0
-33 -34 -44 0
-33 34 44 0
33 34 -44 0
33 -34 44 0
34 190 -35 0
-34 -190 0
-34 35 0
-35 36 39 0
-35 -36 -39 0
35 -36 39 0
35 36 -39 0
-36 -37 -38 0
-36 37 38 0
36 37 -38 0
36 -37 38 0
37 -180 192 0
-37 180 0
-37 -192 0
38 -168 28 0
38 168 -28 0
-38 168 28 0
-38 -168 -28 0
-39 -40 -43 0
-39 40 43 0
39 40 -43 0
39 -40 43 0
-40 -23 -41 0
-40 23 41 0
40 23 -41 0
40 -23 41 0
41 160 -42 0
41 -160 42 0
-41 -160 -42 0
-41 160 42 0
42 161 -162 0
42 -161 162 0
-42 -161 -162 0
-42 161 162 0
43 163 -167 0
43 -163 167 0
-43 -163 -167 0
-43 163 167 0
44 -176 -183 0
44 -176 -190 0
-44 176 0
-44 183 190 0
45 46 -47 0
-45 -46 0
-45 47 0
46 -179 -190 0
46 -179 182 0
-46 179 0
-46 -182 190 0
-47 -184 -48 0
-47 184 48 0
47 184 -48 0
47 -184 48 0
48 190 -49 0
-48 -190 0
-48 49 0
49 25 -50 0
49 -25 50 0
-49 -25 -50 0
-49 25 50 0
50 -41 51 0
50 41 -51 0
-50 41 51 0
-50 -41 -51 0
-51 -52 -53 0
-51 52 53 0
51 52 -53 0
51 -52 53 0
52 -181 192 0
-52 181 0
-52 -192 0
53 163 -173 0
53 -163 173 0
-53 -163 -173 0
-53 163 173 0
54 -55 58 0
-54 55 0
-54 -58 0
-55 192 57 0
-55 -188 57 0
-55 56 57 0
55 -57 0
55 188 -192 -56 0
56 183 -190 0
56 182 -190 0
-56 190 0
-56 -182 -183 0
57 183 -191 192 0
57 182 -191 192 0
-57 191 0
-57 -192 0
-57 -182 -183 0
-58 59 67 0
58 -59 0
58 -67 0
-59 -187 -60 0
-59 187 60 0
59 187 -60 0
59 -187 60 0
60 190 -61 0
-60 -190 0
-60 61 0
-61 -62 -66 0
-61 62 66 0
61 62 -66 0
61 -62 66 0
-62 63 65 0
-62 -63 -65 0
62 -63 65 0
62 63 -65 0
63 162 -64 0
63 -162 64 0
-63 -162 -64 0
-63 162 64 0
64 165 -167 0
64 -165 167 0
-64 -165 -167 0
-64 165 167 0
-65 -171 -29 0
-65 171 29 0
65 171 -29 0
65 -171 29 0
66 -178 -182 192 0
-66 178 0
-66 182 0
-66 -192 0
-67 -186 -68 0
-67 186 68 0
67 186 -68 0
67 -186 68 0
68 190 -69 0
-68 -190 0
-68 69 0
-69 -70 -74 0
-69 70 74 0
69 70 -74 0
69 -70 74 0
70 -12 71 0
70 12 -71 0
-70 12 71 0
-70 -12 -71 0
-71 -170 -72 0
-71 170 72 0
71 170 -72 0
71 -170 72 0
72 174 -73 0
72 -174 73 0
-72 -174 -73 0
-72 174 73 0
73 -177 183 192 0
-73 177 0
-73 -192 0
-73 -183 0
74 161 -75 0
74 -161 75 0
-74 -161 -75 0
-74 161 75 0
75 164 -167 0
75 -164 167 0
-75 -164 -167 0
-75 164 167 0
76 161 -77 0
76 -161 77 0
-76 -161 -77 0
-76 161 77 0
77 -78 -80 0
-77 78 0
-77 80 0
78 -30 79 0
-78 30 0
-78 -79 0
-79 6 17 0
79 -6 0
79 -17 0
80 -55 -81 0
-80 55 0
-80 81 0
81 59 -67 0
-81 -59 0
-81 67 0
82 162 -83 0
82 -162 83 0
-82 -162 -83 0
-82 162 83 0
83 -78 -84 0
-83 78 0
-83 84 0
84 -55 -85 0
-84 55 0
-84 85 0
85 -59 67 0
-85 59 0
-85 -67 0
86 163 -87 0
86 -163 87 0
-86 -163 -87 0
-86 163 87 0
87 -30 -54 -88 0
-87 30 0
-87 54 0
-87 88 0
88 -6 17 0
-88 6 0
-88 -17 0
89 169 -90 0
89 -169 90 0
-89 -169 -90 0
-89 169 90 0
90 -91 -93 0
-90 91 0
-90 93 0
91 -30 -92 0
-91 30 0
-91 92 0
92 -6 -17 0
-92 6 0
-92 17 0
93 -85 -94 0
-93 85 0
-93 94 0
-94 192 57 0
-94 -189 57 0
-94 56 57 0
94 -57 0
94 189 -192 -56 0
95 174 -96 0
95 -174 96 0
-95 -174 -96 0
-95 174 96 0
96 -4 -94 -97 0
-96 4 0
-96 94 0
-96 97 0
97 -59 -67 0
-97 59 0
-97 67 0
98 175 -99 0
98 -175 99 0
-98 -175 -99 0
-98 175 99 0
99 -91 -100 0
-99 91 0
-99 100 0
100 -81 -94 0
-100 81 0
-100 94 0
101 164 -102 0
101 -164 102 0
-101 -164 -102 0
-101 164 102 0
102 -80 -103 0
-102 80 0
-102 103 0
103 -5 -104 0
-103 5 0
-103 104 0
104 -31 105 0
-104 31 0
-104 -105 0
-105 46 47 0
105 -46 0
105 -47 0
106 165 -107 0
106 -165 107 0
-106 -165 -107 0
-106 165 107 0
107 -84 -103 0
-107 84 0
-107 103 0
108 166 -109 0
108 -166 109 0
-108 -166 -109 0
-108 166 109 0
109 -54 -92 -104 0
-109 54 0
-109 92 0
-109 104 0
110 167 -111 0
110 -167 111 0
-110 -167 -111 0
-110 167 111 0
111 -55 79 -97 -104 0
-111 55 0
-111 104 0
-111 97 0
-111 -79 0
112 168 -113 0
112 -168 113 0
-112 -168 -113 0
-112 168 113 0
113 -104 -114 0
-113 104 0
-113 114 0
114 -88 -100 0
-114 88 0
-114 100 0
115 170 -116 0
115 -170 116 0
-115 -170 -116 0
-115 170 116 0
116 -100 -117 0
-116 100 0
-116 117 0
117 -5 -118 0
-117 5 0
-117 118 0
118 -45 119 0
-118 45 0
-118 -119 0
-119 32 33 0
119 -32 0
119 -33 0
120 171 -121 0
120 -171 121 0
-120 -171 -121 0
-120 171 121 0
121 -93 -117 0
-121 93 0
-121 117 0
122 172 -123 0
122 -172 123 0
-122 -172 -123 0
-122 172 123 0
123 58 -92 -94 -118 0
-123 118 0
-123 -58 0
-123 92 0
-123 94 0
124 173 -125 0
124 -173 125 0
-124 -173 -125 0
-124 173 125 0
125 -114 -118 0
-125 114 0
-125 118 0
126 192 -79 129 0
126 192 -127 129 0
-126 -192 0
-126 -129 0
-126 79 127 0
-127 58 128 0
127 -58 0
127 -128 0
-128 105 119 0
128 -105 0
128 -119 0
129 -191 -130 0
129 -191 -57 -137 0
-129 191 0
-129 57 130 0
-129 130 137 0
-130 131 134 0
130 -131 0
130 -134 0
-131 83 87 132 133 0
131 -83 0
131 -133 0
131 -132 0
131 -87 0
-132 102 107 109 111 0
132 -111 0
132 -109 0
132 -102 0
132 -107 0
-133 3 77 0
133 -3 0
133 -77 0
-134 99 113 135 136 0
134 -99 0
134 -136 0
134 -135 0
134 -113 0
-135 116 121 123 125 0
135 -125 0
135 -123 0
135 -116 0
135 -121 0
-136 90 96 0
136 -90 0
136 -96 0
-137 -17 -127 0
-137 -6 -17 0
-137 -6 -127 0
-137 6 17 138 0
137 -6 17 127 0
137 6 -17 127 0
137 6 17 -138 0
-138 -67 -128 0
-138 -59 -67 0
-138 -59 -128 0
-138 59 67 139 0
138 -59 67 128 0
138 59 -67 128 0
138 59 67 -139 0
-139 -33 -47 0
-139 -32 -33 0
-139 -32 -47 0
-139 -33 -46 0
-139 -32 -46 0
-139 -46 -47 0
-139 32 33 46 47 0
139 32 33 -46 47 0
139 -32 33 46 47 0
139 32 -33 46 47 0
139 32 33 46 -47 0
140 35 -141 142 0
140 -35 141 142 0
-140 -142 0
-140 35 141 0
-140 -35 -141 0
141 -176 -190 -130 0
-141 176 0
-141 190 0
-141 130 0
142 191 -192 0
-142 -191 0
-142 192 0
143 -49 142 144 0
143 49 142 -144 0
-143 -142 0
-143 -49 -144 0
-143 49 144 0
144 -184 -190 -130 0
-144 184 0
-144 190 0
-144 130 0
145 69 142 -146 0
145 -69 142 146 0
-145 -142 0
-145 69 146 0
-145 -69 -146 0
146 -186 -190 -130 0
-146 186 0
-146 190 0
-146 130 0
147 61 142 -148 0
147 -61 142 148 0
-147 -142 0
-147 61 148 0
-147 -61 -148 0
148 -187 -190 -130 0
-148 187 0
-148 190 0
-148 130 0
149 8 142 -150 0
149 -8 142 150 0
-149 -142 0
-149 8 150 0
-149 -8 -150 0
150 -178 -190 -130 0
-150 178 0
-150 190 0
-150 130 0
151 -152 153 0
151 152 -153 0
-151 152 153 0
-151 -152 -153 0
-152 -188 39 0
-152 192 39 0
152 -39 0
152 188 -192 0
-153 192 131 0
-153 -180 -188 -192 0
153 192 -131 0
153 188 -192 0
153 180 -192 0
154 -155 157 0
154 155 -157 0
-154 155 157 0
-154 -155 -157 0
-155 -13 -25 156 0
-155 13 25 156 0
155 -156 0
155 -13 25 0
155 13 -25 0
156 189 -192 0
-156 -189 0
-156 192 0
-157 192 134 0
-157 -181 -189 -192 0
157 192 -134 0
157 189 -192 0
157 181 -192 0
158 19 142 -159 0
158 -19 142 159 0
-158 -142 0
-158 19 159 0
-158 -19 -159 0
159 -185 -190 -130 0
-159 185 0
-159 190 0
-159 130 0
-193 0
2 0
76 0
82 0
86 0
89 0
95 0
98 0
101 0
106 0
108 0
110 0
112 0
115 0
120 0
122 0
124 0
-126 0
140 0
143 0
145 0
147 0
149 0
-151 0
-154 0
158 0

